
Gurobi 7.5.2 (linux64) logging started Sat Jul  7 16:21:32 2018

Changed value of parameter LogFile to result/ilp/simNo_1-n_100-m_40-s_4-minVAF_0.05-cov_10000-k_1-fn_0.15-fp_0.0001-na_0.15.ILP.gurobiSolverLog
   Prev: gurobi.log  Default: 
Changed value of parameter TimeLimit to 86400.0
   Prev: 1e+100  Min: 0.0  Max: 1e+100  Default: 1e+100
Optimize a model with 639293 rows, 10765 columns and 1940420 nonzeros
Variable types: 0 continuous, 10765 integer (10765 binary)
Coefficient statistics:
  Matrix range     [2e-05, 4e+00]
  Objective range  [7e-01, 1e+01]
  Bounds range     [1e+00, 1e+00]
  RHS range        [2e-01, 2e+00]
Found heuristic solution: objective -16772.64652
Presolve removed 125686 rows and 974 columns (presolve time = 5s) ...
Presolve removed 127287 rows and 974 columns (presolve time = 11s) ...
Presolve removed 127287 rows and 974 columns (presolve time = 15s) ...
Presolve removed 127816 rows and 974 columns (presolve time = 21s) ...
Presolve removed 180716 rows and 1503 columns (presolve time = 25s) ...
Presolve removed 180716 rows and 1503 columns
Presolve time: 29.93s
Presolved: 458577 rows, 9262 columns, 1380700 nonzeros
Variable types: 0 continuous, 9262 integer (9262 binary)
Presolved: 9262 rows, 467839 columns, 1389962 nonzeros

Presolve removed 9262 rows and 467839 columns

Root simplex log...

Iteration    Objective       Primal Inf.    Dual Inf.      Time
       0    1.1747943e+01   0.000000e+00   8.176300e+04     36s
   19066   -3.0042497e+02   0.000000e+00   7.663763e+05     40s
   29972   -3.4863159e+02   0.000000e+00   1.035705e+05     45s
   42721   -3.7662045e+02   0.000000e+00   2.553000e+03     50s
   43149   -3.7629093e+02   0.000000e+00   0.000000e+00     51s
   43149   -3.7629093e+02   0.000000e+00   0.000000e+00     52s

Root relaxation: objective -3.762909e+02, 43149 iterations, 19.63 seconds
Total elapsed time = 135.83s
Total elapsed time = 203.31s
Total elapsed time = 273.60s

    Nodes    |    Current Node    |     Objective Bounds      |     Work
 Expl Unexpl |  Obj  Depth IntInf | Incumbent    BestBd   Gap | It/Node Time

     0     0 -376.29093    0 1624 -16772.647 -376.29093  97.8%     -  294s
H    0     0                    -568.3554119 -376.29093  33.8%     -  298s
H    0     0                    -546.0659552 -376.29093  31.1%     -  300s
     0     0 -382.00817    0 1644 -546.06596 -382.00817  30.0%     -  499s
H    0     0                    -521.3300500 -382.00817  26.7%     -  520s
     0     0 -382.00817    0 1638 -521.33005 -382.00817  26.7%     -  523s
     0     0 -384.43432    0 2362 -521.33005 -384.43432  26.3%     -  814s
H    0     0                    -502.7556927 -384.43432  23.5%     -  821s
     0     0 -384.84628    0 2407 -502.75569 -384.84628  23.5%     -  866s
     0     0 -385.02205    0 1780 -502.75569 -385.02205  23.4%     -  880s
     0     0 -385.05902    0 1780 -502.75569 -385.05902  23.4%     -  894s
     0     0 -385.05902    0 1780 -502.75569 -385.05902  23.4%     -  897s
     0     0 -387.54478    0 1629 -502.75569 -387.54478  22.9%     - 1071s
     0     0 -387.66306    0 2405 -502.75569 -387.66306  22.9%     - 1130s
     0     0 -387.72514    0 1856 -502.75569 -387.72514  22.9%     - 1140s
     0     0 -387.72514    0 1866 -502.75569 -387.72514  22.9%     - 1144s
     0     0 -390.45422    0 1848 -502.75569 -390.45422  22.3%     - 7572s
H    0     0                    -486.0386002 -390.45422  19.7%     - 7582s
     0     0 -390.45422    0 1855 -486.03860 -390.45422  19.7%     - 7584s
     0     0 -392.64975    0 1799 -486.03860 -392.64975  19.2%     - 8201s
H    0     0                    -484.1811454 -392.64975  18.9%     - 8210s
     0     0 -392.65110    0 1789 -484.18115 -392.65110  18.9%     - 8217s
     0     0 -393.57983    0 1783 -484.18115 -393.57983  18.7%     - 8712s
     0     0 -394.47148    0 1885 -484.18115 -394.47148  18.5%     - 9651s
     0     0 -394.47864    0 1950 -484.18115 -394.47864  18.5%     - 9662s
     0     0 -394.47864    0 1954 -484.18115 -394.47864  18.5%     - 9671s
     0     0 -396.80205    0 1912 -484.18115 -396.80205  18.0%     - 14485s
     0     0 -396.88062    0 1770 -484.18115 -396.88062  18.0%     - 14513s
     0     0 -396.88472    0 1772 -484.18115 -396.88472  18.0%     - 14519s
     0     0 -396.88472    0 1772 -484.18115 -396.88472  18.0%     - 14521s
     0     0 -398.09765    0 1660 -484.18115 -398.09765  17.8%     - 14925s
     0     0 -398.19082    0 1667 -484.18115 -398.19082  17.8%     - 15683s
     0     0 -398.21719    0 1674 -484.18115 -398.21719  17.8%     - 15727s
     0     0 -398.26199    0 1675 -484.18115 -398.26199  17.7%     - 15775s
     0     0 -398.26775    0 2446 -484.18115 -398.26775  17.7%     - 15891s
     0     0 -398.26893    0 1929 -484.18115 -398.26893  17.7%     - 15917s
     0     0 -400.36380    0 2440 -484.18115 -400.36380  17.3%     - 17012s
     0     0 -400.75135    0 2430 -484.18115 -400.75135  17.2%     - 17025s
     0     0 -400.75135    0 2432 -484.18115 -400.75135  17.2%     - 17027s
     0     0 -401.25176    0 2439 -484.18115 -401.25176  17.1%     - 17053s
     0     0 -401.57826    0 2437 -484.18115 -401.57826  17.1%     - 17103s
     0     0 -401.61577    0 2440 -484.18115 -401.61577  17.1%     - 17109s
     0     0 -401.61577    0 2439 -484.18115 -401.61577  17.1%     - 17112s
     0     0 -402.65710    0 1798 -484.18115 -402.65710  16.8%     - 17212s
     0     0 -403.04685    0 2485 -484.18115 -403.04685  16.8%     - 17305s
     0     0 -403.12186    0 2489 -484.18115 -403.12186  16.7%     - 17316s
     0     0 -403.13665    0 2488 -484.18115 -403.13665  16.7%     - 17324s
     0     0 -403.18735    0 2450 -484.18115 -403.18735  16.7%     - 17333s
     0     0 -403.18735    0 2452 -484.18115 -403.18735  16.7%     - 17335s
     0     0 -405.88724    0 1924 -484.18115 -405.88724  16.2%     - 18522s
H    0     0                    -480.4662360 -405.88724  15.5%     - 18568s
     0     0 -406.16851    0 2479 -480.46624 -406.16851  15.5%     - 18616s
     0     0 -406.22312    0 2498 -480.46624 -406.22312  15.5%     - 18633s
     0     0 -406.24738    0 1940 -480.46624 -406.24738  15.4%     - 18643s
     0     0 -406.27964    0 2011 -480.46624 -406.27964  15.4%     - 18674s
     0     0 -406.27964    0 2012 -480.46624 -406.27964  15.4%     - 18677s
     0     0 -407.07742    0 1528 -480.46624 -407.07742  15.3%     - 21813s
     0     0 -407.14207    0 1855 -480.46624 -407.14207  15.3%     - 21900s
     0     0 -407.15703    0 1866 -480.46624 -407.15703  15.3%     - 21915s
     0     0 -407.15748    0 1874 -480.46624 -407.15748  15.3%     - 21928s
     0     0 -409.52195    0 2457 -480.46624 -409.52195  14.8%     - 24034s
     0     0 -409.68622    0 2483 -480.46624 -409.68622  14.7%     - 24158s
     0     0 -409.77234    0 2479 -480.46624 -409.77234  14.7%     - 24207s
     0     0 -409.85196    0 2467 -480.46624 -409.85196  14.7%     - 24232s
     0     0 -409.85308    0 2464 -480.46624 -409.85308  14.7%     - 24244s
     0     0 -410.67566    0 1760 -480.46624 -410.67566  14.5%     - 24336s
     0     0 -410.67731    0 1768 -480.46624 -410.67731  14.5%     - 24413s
     0     0 -411.77430    0 1931 -480.46624 -411.77430  14.3%     - 24840s
     0     0 -411.82831    0 2564 -480.46624 -411.82831  14.3%     - 24957s
     0     0 -411.86466    0 1936 -480.46624 -411.86466  14.3%     - 24974s
     0     0 -411.86466    0 1934 -480.46624 -411.86466  14.3%     - 24978s
     0     0 -412.39454    0 1938 -480.46624 -412.39454  14.2%     - 25054s
     0     0 -413.00628    0 1946 -480.46624 -413.00628  14.0%     - 25319s
     0     0 -413.58006    0 1931 -480.46624 -413.58006  13.9%     - 26026s
     0     0 -413.62233    0 1934 -480.46624 -413.62233  13.9%     - 26070s
     0     0 -413.62233    0 1934 -480.46624 -413.62233  13.9%     - 26077s
     0     0 -415.12749    0 1933 -480.46624 -415.12749  13.6%     - 30786s
     0     0 -415.36184    0 1857 -480.46624 -415.36184  13.6%     - 30856s
     0     0 -415.45145    0 1932 -480.46624 -415.45145  13.5%     - 30919s
     0     0 -415.46087    0 1928 -480.46624 -415.46087  13.5%     - 30932s
     0     0 -415.46106    0 1930 -480.46624 -415.46106  13.5%     - 30936s
     0     0 -416.67555    0 1881 -480.46624 -416.67555  13.3%     - 31428s
     0     0 -416.89761    0 1866 -480.46624 -416.89761  13.2%     - 31550s
     0     0 -416.95989    0 1946 -480.46624 -416.95989  13.2%     - 31611s
     0     0 -416.99485    0 1948 -480.46624 -416.99485  13.2%     - 31624s
     0     0 -416.99655    0 1949 -480.46624 -416.99655  13.2%     - 31630s
     0     0 -417.78307    0 1936 -480.46624 -417.78307  13.0%     - 31941s
     0     0 -417.99427    0 1884 -480.46624 -417.99427  13.0%     - 32672s
     0     0 -418.02323    0 1942 -480.46624 -418.02323  13.0%     - 32708s
     0     0 -418.04447    0 1951 -480.46624 -418.04447  13.0%     - 32738s
     0     0 -418.04555    0 1954 -480.46624 -418.04555  13.0%     - 32744s
     0     0 -418.98987    0 1936 -480.46624 -418.98987  12.8%     - 33266s
     0     0 -419.36585    0 1942 -480.46624 -419.36585  12.7%     - 33685s
     0     0 -419.72808    0 1938 -480.46624 -419.72808  12.6%     - 33809s
     0     0 -419.77729    0 1950 -480.46624 -419.77729  12.6%     - 33849s
     0     0 -419.77729    0 1950 -480.46624 -419.77729  12.6%     - 33853s
     0     0 -421.33112    0 1947 -480.46624 -421.33112  12.3%     - 47830s
     0     0 -421.37415    0 1950 -480.46624 -421.37415  12.3%     - 47973s
     0     0 -421.38255    0 1941 -480.46624 -421.38255  12.3%     - 47985s
     0     0 -421.42011    0 1951 -480.46624 -421.42011  12.3%     - 47997s
     0     0 -421.43073    0 1950 -480.46624 -421.43073  12.3%     - 48005s
     0     0 -421.43073    0 1943 -480.46624 -421.43073  12.3%     - 48009s
     0     0 -421.49654    0 1945 -480.46624 -421.49654  12.3%     - 48027s
     0     0 -421.77383    0 1945 -480.46624 -421.77383  12.2%     - 48389s
     0     0 -421.85676    0 1946 -480.46624 -421.85676  12.2%     - 48495s
     0     0 -421.87096    0 1954 -480.46624 -421.87096  12.2%     - 48513s
     0     0 -421.88431    0 1954 -480.46624 -421.88431  12.2%     - 48526s
     0     0 -421.91342    0 1955 -480.46624 -421.91342  12.2%     - 48532s
     0     0 -421.91541    0 1958 -480.46624 -421.91541  12.2%     - 48537s
     0     0 -423.21895    0 1943 -480.46624 -423.21895  11.9%     - 48865s
     0     0 -423.37218    0 1953 -480.46624 -423.37218  11.9%     - 50362s
     0     0 -423.38288    0 1953 -480.46624 -423.38288  11.9%     - 50369s
     0     0 -423.38288    0 1957 -480.46624 -423.38288  11.9%     - 50372s
     0     0 -425.29461    0 1963 -480.46624 -425.29461  11.5%     - 53764s
     0     0 -425.37579    0 2044 -480.46624 -425.37579  11.5%     - 53870s
     0     0 -425.37951    0 2049 -480.46624 -425.37951  11.5%     - 53889s
     0     0 -428.00132    0 2031 -480.46624 -428.00132  10.9%     - 60049s
     0     0 -428.10867    0 2602 -480.46624 -428.10867  10.9%     - 60122s
     0     0 -428.12385    0 1956 -480.46624 -428.12385  10.9%     - 60132s
     0     0 -428.19983    0 2027 -480.46624 -428.19983  10.9%     - 60186s
     0     0 -428.23907    0 2023 -480.46624 -428.23907  10.9%     - 60228s
     0     0 -428.24198    0 2018 -480.46624 -428.24198  10.9%     - 60241s
     0     0 -428.24818    0 2013 -480.46624 -428.24818  10.9%     - 60265s
H    0     0                    -478.6087812 -428.24818  10.5%     - 60961s
     0     0 -428.55406    0 2027 -478.60878 -428.55406  10.5%     - 61128s
     0     0 -428.62663    0 2020 -478.60878 -428.62663  10.4%     - 61147s
     0     0 -428.66325    0 2024 -478.60878 -428.66325  10.4%     - 61159s
     0     0 -428.66679    0 2025 -478.60878 -428.66679  10.4%     - 61166s
     0     0 -428.99771    0 2011 -478.60878 -428.99771  10.4%     - 61206s
     0     0 -429.23459    0 1968 -478.60878 -429.23459  10.3%     - 61327s
     0     0 -429.25426    0 1874 -478.60878 -429.25426  10.3%     - 61355s
     0     0 -429.26326    0 2527 -478.60878 -429.26326  10.3%     - 61371s
     0     0 -429.26358    0 2527 -478.60878 -429.26358  10.3%     - 61375s
     0     0 -430.10212    0 1894 -478.60878 -430.10212  10.1%     - 61689s
     0     0 -430.31339    0 1887 -478.60878 -430.31339  10.1%     - 61760s
     0     0 -430.36877    0 1963 -478.60878 -430.36877  10.1%     - 61789s
     0     0 -430.39591    0 1953 -478.60878 -430.39591  10.1%     - 61802s
     0     0 -430.40405    0 1963 -478.60878 -430.40405  10.1%     - 61809s
     0     0 -430.40405    0 1955 -478.60878 -430.40405  10.1%     - 61811s
     0     0 -430.86328    0 1704 -478.60878 -430.86328  10.0%     - 61946s
     0     0 -430.86446    0 1720 -478.60878 -430.86446  10.0%     - 61970s
     0     0 -431.00419    0 1874 -478.60878 -431.00419  9.95%     - 62066s
     0     0 -431.29292    0 1883 -478.60878 -431.29292  9.89%     - 62422s
     0     0 -431.53813    0 1940 -478.60878 -431.53813  9.83%     - 62508s
     0     0 -431.55551    0 1962 -478.60878 -431.55551  9.83%     - 62524s
     0     0 -431.55584    0 1967 -478.60878 -431.55584  9.83%     - 62528s
     0     0 -431.86480    0 1959 -478.60878 -431.86480  9.77%     - 62662s
     0     0 -432.09045    0 1966 -478.60878 -432.09045  9.72%     - 62847s
     0     0 -432.09678    0 1963 -478.60878 -432.09678  9.72%     - 62880s
     0     0 -432.13260    0 1893 -478.60878 -432.13260  9.71%     - 62906s
     0     0 -432.16466    0 1967 -478.60878 -432.16466  9.70%     - 62940s
     0     0 -432.18832    0 1970 -478.60878 -432.18832  9.70%     - 62952s
     0     0 -432.18832    0 1972 -478.60878 -432.18832  9.70%     - 62955s
     0     0 -432.20457    0 1964 -478.60878 -432.20457  9.70%     - 62979s
     0     0 -432.38057    0 1950 -478.60878 -432.38057  9.66%     - 63087s
     0     0 -432.40888    0 1883 -478.60878 -432.40888  9.65%     - 63100s
     0     0 -432.44790    0 1943 -478.60878 -432.44790  9.64%     - 63123s
     0     0 -432.44790    0 1951 -478.60878 -432.44790  9.64%     - 63128s
     0     0 -432.69695    0 1835 -478.60878 -432.69695  9.59%     - 63245s
     0     0 -432.88858    0 1960 -478.60878 -432.88858  9.55%     - 65309s
     0     0 -432.92046    0 1908 -478.60878 -432.92046  9.55%     - 65321s
     0     0 -432.94282    0 1957 -478.60878 -432.94282  9.54%     - 65343s
     0     0 -432.94922    0 1968 -478.60878 -432.94922  9.54%     - 65358s
     0     0 -432.95559    0 1901 -478.60878 -432.95559  9.54%     - 65362s
     0     0 -432.95938    0 1959 -478.60878 -432.95938  9.54%     - 65368s
     0     0 -432.96405    0 1958 -478.60878 -432.96405  9.54%     - 65378s
     0     0 -433.08766    0 1833 -478.60878 -433.08766  9.51%     - 65441s
     0     0 -433.12611    0 1958 -478.60878 -433.12611  9.50%     - 65467s
     0     0 -433.18431    0 1963 -478.60878 -433.18431  9.49%     - 65520s
     0     0 -433.19556    0 1960 -478.60878 -433.19556  9.49%     - 65531s
     0     0 -433.20733    0 1962 -478.60878 -433.20733  9.49%     - 65547s
     0     0 -433.20985    0 1834 -478.60878 -433.20985  9.49%     - 65555s
     0     0 -433.21045    0 1836 -478.60878 -433.21045  9.49%     - 65566s
     0     0 -433.21045    0 1834 -478.60878 -433.21045  9.49%     - 65569s
     0     0 -433.49445    0 1953 -478.60878 -433.49445  9.43%     - 65839s
     0     0 -433.86047    0 1966 -478.60878 -433.86047  9.35%     - 66133s
     0     0 -433.91831    0 1972 -478.60878 -433.91831  9.34%     - 66182s
     0     0 -433.93653    0 1973 -478.60878 -433.93653  9.33%     - 66191s
     0     0 -433.93897    0 1975 -478.60878 -433.93897  9.33%     - 66197s
     0     0 -434.13493    0 1970 -478.60878 -434.13493  9.29%     - 66273s
     0     0 -434.39791    0 1963 -478.60878 -434.39791  9.24%     - 67270s
     0     0 -434.48341    0 1928 -478.60878 -434.48341  9.22%     - 67321s
     0     0 -434.52744    0 1891 -478.60878 -434.52744  9.21%     - 67372s
     0     0 -434.52864    0 1970 -478.60878 -434.52864  9.21%     - 67385s
     0     0 -434.52864    0 1962 -478.60878 -434.52864  9.21%     - 67403s
     0     0 -434.52864    0 1971 -478.60878 -434.52864  9.21%     - 67415s
     0     0 -434.52864    0 1965 -478.60878 -434.52864  9.21%     - 67434s
     0     0 -434.52864    0 1937 -478.60878 -434.52864  9.21%     - 69579s
     0     2 -434.53545    0 1937 -478.60878 -434.53545  9.21%     - 70117s
     1     3 -435.61719    1 1443 -478.60878 -434.54326  9.21%  9365 70211s
     2     4 -436.23560    2 1363 -478.60878 -434.54326  9.21%  5030 70221s
     3     5 -437.16432    3 1368 -478.60878 -434.54326  9.21%  3516 70227s
     4     6 -468.71532    3 1030 -478.60878 -434.54326  9.21%  9102 70621s
     5     7 -439.95050    4 1332 -478.60878 -434.54326  9.21%  7461 70629s
     6     8 -438.09305    4 1347 -478.60878 -434.54326  9.21%  6260 70632s
     8    10 -468.71532    5 1084 -478.60878 -434.54326  9.21%  7670 70963s
     9    11 -438.09305    6 1320 -478.60878 -434.54326  9.21%  6820 70976s
    10    12 -439.02178    7 1305 -478.60878 -434.54326  9.21%  6159 70980s
    11    11     cutoff    7      -478.60878 -434.54326  9.21%  8559 71404s
    12    12 -439.02178    8 1396 -478.60878 -434.54326  9.21%  7861 71405s
    13    13 -477.07386    8  970 -478.60878 -434.54326  9.21%  9424 71779s
    14    14 -439.95050    9 1391 -478.60878 -434.54326  9.21%  8773 71781s
    15    15 -468.71532    9  991 -478.60878 -434.54326  9.21%  9561 72047s
    16    16 -440.87923   10 1268 -478.60878 -434.54326  9.21%  8993 72153s
    17    17 -469.63118   10  734 -478.60878 -434.54326  9.21%  9555 72385s
    18    18 -441.80796   11 1171 -478.60878 -434.54326  9.21%  9072 72410s
    19    17     cutoff   11      -478.60878 -434.54326  9.21%  9562 72598s
    20    18 -445.52287   12 1166 -478.60878 -434.54326  9.21%  9369 72676s
    22    20 -463.16869   13 1096 -478.60878 -434.54326  9.21%  9289 72883s
    24    22 -446.45160   15 1155 -478.60878 -434.54326  9.21%  8518 72996s
    26    22     cutoff   16      -478.60878 -434.54326  9.21%  8364 73135s
    27    23 -448.30905   17 1221 -478.60878 -434.54326  9.21%  8066 73205s
    28    22     cutoff   17      -478.60878 -434.54326  9.21%  8425 73450s
    31    25 -450.16651   20 1226 -478.60878 -434.54326  9.21%  7654 73461s
    32    24     cutoff   20      -478.60878 -434.54326  9.21%  7986 73671s
    33    25 -451.09523   21 1128 -478.60878 -434.54326  9.21%  7811 73696s
    34    26 -455.73887   21 1070 -478.60878 -434.54326  9.21%  7726 73749s
    35    27 -455.73887   22 1108 -478.60878 -434.54326  9.21%  7604 73777s
    36    28 -454.81014   22 1136 -478.60878 -434.54326  9.21%  7534 73856s
    37    29 -457.59632   23 1074 -478.60878 -434.54326  9.21%  7339 73861s
    38    30 -462.23996   23 1044 -478.60878 -434.54326  9.21%  7223 73893s
    39    31 -462.23996   24 1045 -478.60878 -434.54326  9.21%  7050 73902s
    40    32 -460.38251   24 1025 -478.60878 -434.54326  9.21%  6894 73949s
    41    33 -465.02614   25 1126 -478.60878 -434.54326  9.21%  6752 73959s
    42    34 -468.74105   25  884 -478.60878 -434.54326  9.21%  6601 73963s
    43    35 -472.45596   26  852 -478.60878 -434.54326  9.21%  6455 73967s
    44    36 -477.09960   27  836 -478.60878 -434.54326  9.21%  6314 73971s
    47    35 -475.24214   27  932 -478.60878 -434.54326  9.21%  5931 73977s
    52    34 -474.60339    1  835 -478.60878 -435.62592  8.98%  7046 75310s
    53    33     cutoff    2      -478.60878 -435.62592  8.98%  6933 75323s
    54    34 -474.61625    2  755 -478.60878 -435.62592  8.98%  6811 75357s
    55    35 -475.88092    3  610 -478.60878 -435.62592  8.98%  6708 75372s
    56    36 -476.80964    4  578 -478.60878 -435.62592  8.98%  6594 75389s
    57    37 -477.73837    5  413 -478.60878 -435.62592  8.98%  6485 75392s
    59    37     cutoff    6      -478.60878 -435.62592  8.98%  6269 75395s
    64    36 -438.95735    2 1398 -478.60878 -438.09305  8.47%  5952 76082s
    65    37 -442.58380    3 1510 -478.60878 -438.09305  8.47%  8705 82848s

Cutting planes:
  Gomory: 1
  MIR: 2
  StrongCG: 1
  Zero half: 708

Explored 66 nodes (2987262 simplex iterations) in 86400.26 seconds
Thread count was 1 (of 80 available processors)

Solution count 9: -478.609 -480.466 -484.181 ... -16772.6

Time limit reached
Best objective -4.786087812436e+02, best bound -4.380930499783e+02, gap 8.4653%
